 Ca F
1.0
   5.515149340000000E+00   1.907600000000000E-04   2.507000000000000E-05
  -2.288900000000000E-04   5.515167800000000E+00  -1.315800000000000E-04
  -7.020000000000000E-06   7.732000000000000E-05   5.515118010000000E+00
 Ca F
 4 8
Cartesian
   4.594071300000000E-01   5.055684420000000E+00   4.594748400000000E-01
   4.595201700000000E-01   2.298140230000000E+00   3.217112820000000E+00
   3.216972260000000E+00   5.055811600000000E+00   3.217039760000000E+00
   3.217111190000000E+00   2.298196340000000E+00   4.595541700000000E-01
   1.838366010000000E+00   9.193505900000000E-01   1.838359650000000E+00
   4.595819310000000E+00   3.677090500000000E+00   4.595864100000000E+00
   4.595825110000000E+00   3.677037120000000E+00   1.838305060000000E+00
   1.838355740000000E+00   9.194083500000000E-01   4.595916970000000E+00
   4.595936450000000E+00   9.195117400000000E-01   4.595930580000000E+00
   1.838250170000000E+00   3.676945120000000E+00   1.838294080000000E+00
   1.838247430000000E+00   3.676980680000000E+00   4.595849820000000E+00
   4.595938860000000E+00   9.194651300000000E-01   1.838367170000000E+00
