Ca F
 1.0
  0.000000000000000   2.740460000000000   2.740460000000000
  2.740460000000000   0.000000000000000   2.740460000000000
  2.740460000000000   2.740460000000000   0.000000000000000
  Ca   F
   1   2
Direct
  0.000000000000000   0.000000000000000   0.000000000000000 
  0.250000000000000   0.250000000000000   0.250000000000000 
  0.750000000000000   0.750000000000000   0.750000000000000 
