lattice_vector      6.93037782     -0.19826281     -0.08511190
lattice_vector     -5.03563260     13.15436293     -0.07901089
lattice_vector      0.02533109     -0.01004809     15.94412542
atom       6.32069860      2.45242205      7.47968268 Ti
atom      -2.47846655      8.09550713      8.07308424 Ti
atom      -4.04177135     10.53494453      7.89570172 Ti
atom       2.88200408      2.49766644      7.54059081 Ti
atom       1.05244332      0.08794733      8.21258801 Ti
atom      -0.59215487     10.31747710      7.87723827 Ti
atom       6.42850728      5.19955482      7.62893193 Ti
atom      -0.50165832     13.06779015      8.06644032 Ti
atom       1.32518218      7.64369193      7.54677582 Ti
atom       2.94118622      5.20824475      7.78683246 Ti
atom      -2.38416714      9.81501582      7.16210467 O
atom      -0.11155700      7.03482108      6.68557936 O
atom      -3.90174477      8.72397257      8.94952391 O
atom      -3.96755672     11.69611961      9.23111696 O
atom       2.98907152      3.68393771      8.87684144 O
atom       0.97105254     -1.08989256      6.87828708 O
atom      -0.54112871     11.89295676      6.74985336 O
atom       1.15702501      9.63179912      7.36674167 O
atom       2.83256021      0.67241271      8.57927896 O
atom       1.10778920      1.90774734      7.16931131 O
atom      -4.08493719      7.25557934      6.84516550 O
atom       2.83831141      4.05714605      6.45063393 O
atom      -2.22504272      6.10474912      8.23526528 O
atom       6.37863224      3.64003887      8.78033046 O
atom      -0.88929125      8.60724675      8.79603074 O
atom       4.56799211      1.78936888      7.07660048 O
atom       6.36153341      3.96743809      6.34727978 O
atom       1.26337396      5.93197187      8.48307909 O
atom      -5.69332347     13.93997778      8.55954811 O
atom      -0.54953663     11.52671945      9.17712497 O
